
Gurobi 11.0.2 (mac64[x86], gurobi_cl) logging started Thu Jan 23 12:35:33 2025

Set parameter Username
Set parameter LogFile to value "gurobi.log"
Using license file /Users/henri/gurobi.lic

Gurobi 11.0.2 (mac64[x86], gurobi_cl) logging started Thu Jan 23 12:35:51 2025

Set parameter Username
Set parameter LogFile to value "gurobi.log"
Using license file /Users/henri/gurobi.lic
Academic license - for non-commercial use only - expires 2025-05-17
